
Route #1: 41 15 49 13 46 32 34 19 50 23 
Route #2: 20 42 18 30 35 33 43 
Route #3: 25 36 37 51 27 29 
Route #4: 5 47 10 44 8 45 12 48 9 38 
Route #5: 40 28 31 21 39 14 24 11 3 4 17 
Route #6: 2 16 22 26 1 6 
Route #7: 7 
cost 1117.36
total time is 4.8